(benchmark gametime
:status unknown
:logic QF_AUFBV
:extrafuns ((gtINDEX17  BitVec[32]))
:extrafuns ((gtFIELD__bitsForTID0__gtAGG____anonstruct_D_Work_4  Array[32:32]))
:extrafuns ((gtINDEX18  BitVec[32]))
:extrafuns ((gtAGG__rtDWork  BitVec[32]))
:extrafuns ((gtINDEX15  BitVec[32]))
:extrafuns ((gtINDEX16  BitVec[32]))
:extrafuns ((gtINDEX13  BitVec[32]))
:extrafuns ((gtINDEX14  BitVec[32]))
:extrafuns ((gtINDEX11  BitVec[32]))
:extrafuns ((gtINDEX12  BitVec[32]))
:extrafuns ((gtINDEX9  BitVec[32]))
:extrafuns ((gtINDEX10  BitVec[32]))
:extrafuns ((gtINDEX7  BitVec[32]))
:extrafuns ((gtINDEX8  BitVec[32]))
:extrafuns ((gtINDEX5  BitVec[32]))
:extrafuns ((gtINDEX6  BitVec[32]))
:extrafuns ((gtINDEX4  BitVec[32]))
:extrafuns ((gtINDEX3  BitVec[32]))
:extrafuns ((gtINDEX2  BitVec[32]))
:extrafuns ((gtINDEX1  BitVec[32]))
:extrafuns ((gtINDEX0  BitVec[32]))
:extrafuns ((gtFIELD__is_active_Eng__gtAGG____anonstruct_bitsForTID0_5  Array[32:1]))
:extrafuns ((gtFIELD__is_active_PURI__gtAGG____anonstruct_bitsForTID0_5  Array[32:1]))
:extrafuns ((gtFIELD__is_active_PVRP__gtAGG____anonstruct_bitsForTID0_5  Array[32:1]))
:extrafuns ((gtFIELD__is_active_PPVARP__gtAGG____anonstruct_bitsForTID0_5  Array[32:1]))
:extrafuns ((gtFIELD__is_active_PLRI__gtAGG____anonstruct_bitsForTID0_5  Array[32:1]))
:extrafuns ((sfEvent_  BitVec[32]))
:extrafuns ((gtFIELD__is_PAVI__gtAGG____anonstruct_bitsForTID0_5  Array[32:3]))
:extrafuns ((gtFIELD__is_active_PAVI__gtAGG____anonstruct_bitsForTID0_5  Array[32:1]))
:extrafuns ((gtFIELD__temporalCounter_i5__gtAGG____anonstruct_D_Work_4  Array[32:32]))
:extrafuns ((gtFIELD__temporalCounter_i4__gtAGG____anonstruct_D_Work_4  Array[32:32]))
:extrafuns ((gtFIELD__temporalCounter_i3__gtAGG____anonstruct_D_Work_4  Array[32:32]))
:extrafuns ((gtFIELD__temporalCounter_i2__gtAGG____anonstruct_D_Work_4  Array[32:32]))
:extrafuns ((gtFIELD__temporalCounter_i1__gtAGG____anonstruct_D_Work_4  Array[32:32]))
:extrapreds ((constraint33 ))
:extrapreds ((constraint32 ))
:extrapreds ((constraint31 ))
:extrapreds ((constraint30 ))
:extrapreds ((constraint29 ))
:extrapreds ((constraint28 ))
:extrapreds ((constraint27 ))
:extrapreds ((constraint26 ))
:extrapreds ((constraint25 ))
:extrapreds ((constraint24 ))
:extrapreds ((constraint23 ))
:extrapreds ((constraint22 ))
:extrapreds ((constraint21 ))
:extrapreds ((constraint20 ))
:extrapreds ((constraint19 ))
:extrapreds ((constraint18 ))
:extrapreds ((constraint17 ))
:extrapreds ((constraint16 ))
:extrapreds ((constraint15 ))
:extrapreds ((constraint14 ))
:extrapreds ((constraint13 ))
:extrapreds ((constraint12 ))
:extrapreds ((constraint11 ))
:extrapreds ((constraint10 ))
:extrapreds ((constraint9 ))
:extrapreds ((constraint8 ))
:extrapreds ((constraint7 ))
:extrapreds ((constraint6 ))
:extrapreds ((constraint5 ))
:extrapreds ((constraint4 ))
:extrapreds ((constraint3 ))
:extrapreds ((constraint2 ))
:extrapreds ((constraint1 ))
:extrapreds ((constraint0 ))
:formula
(flet ($x209 (and constraint0 constraint1 constraint2 constraint3 constraint4 constraint5 constraint6 constraint7 constraint8 constraint9 constraint10 constraint11 constraint12 constraint13 constraint14 constraint15 constraint16 constraint17 constraint18 constraint19 constraint20 constraint21 constraint22 constraint23 constraint24 constraint25 constraint26 constraint27 constraint28 constraint29 constraint30 constraint31 constraint32 constraint33))
(flet ($x139 (= gtINDEX18 (select gtFIELD__bitsForTID0__gtAGG____anonstruct_D_Work_4 gtINDEX17)))
(flet ($x135 (= gtINDEX16 (select gtFIELD__bitsForTID0__gtAGG____anonstruct_D_Work_4 gtINDEX15)))
(flet ($x131 (= gtINDEX14 (select gtFIELD__bitsForTID0__gtAGG____anonstruct_D_Work_4 gtINDEX13)))
(flet ($x127 (= gtINDEX12 (select gtFIELD__bitsForTID0__gtAGG____anonstruct_D_Work_4 gtINDEX11)))
(flet ($x123 (= gtINDEX10 (select gtFIELD__bitsForTID0__gtAGG____anonstruct_D_Work_4 gtINDEX9)))
(flet ($x119 (= gtINDEX8 (select gtFIELD__bitsForTID0__gtAGG____anonstruct_D_Work_4 gtINDEX7)))
(flet ($x115 (= gtINDEX6 (select gtFIELD__bitsForTID0__gtAGG____anonstruct_D_Work_4 gtINDEX5)))
(let (?x101 (select gtFIELD__is_active_Eng__gtAGG____anonstruct_bitsForTID0_5 gtINDEX18))
(let (?x95 (select gtFIELD__is_active_PURI__gtAGG____anonstruct_bitsForTID0_5 gtINDEX16))
(let (?x89 (select gtFIELD__is_active_PVRP__gtAGG____anonstruct_bitsForTID0_5 gtINDEX14))
(let (?x83 (select gtFIELD__is_active_PPVARP__gtAGG____anonstruct_bitsForTID0_5 gtINDEX12))
(let (?x77 (select gtFIELD__is_active_PLRI__gtAGG____anonstruct_bitsForTID0_5 gtINDEX10))
(let (?x67 (zero_extend[29] (select gtFIELD__is_PAVI__gtAGG____anonstruct_bitsForTID0_5 gtINDEX8)))
(let (?x60 (select gtFIELD__is_active_PAVI__gtAGG____anonstruct_bitsForTID0_5 gtINDEX6))
(let (?x56 (select gtFIELD__temporalCounter_i5__gtAGG____anonstruct_D_Work_4 gtINDEX4))
(let (?x52 (select gtFIELD__temporalCounter_i4__gtAGG____anonstruct_D_Work_4 gtINDEX3))
(let (?x48 (select gtFIELD__temporalCounter_i3__gtAGG____anonstruct_D_Work_4 gtINDEX2))
(let (?x44 (select gtFIELD__temporalCounter_i2__gtAGG____anonstruct_D_Work_4 gtINDEX1))
(let (?x39 (select gtFIELD__temporalCounter_i1__gtAGG____anonstruct_D_Work_4 gtINDEX0))
(flet ($x208 (and (iff constraint0 (= sfEvent_ bv8[32])) (iff constraint1 (not (bvult ?x39 bv4294967295[32]))) (iff constraint2 (not (bvult ?x44 bv4294967295[32]))) (iff constraint3 (not (bvult ?x48 bv4294967295[32]))) (iff constraint4 (not (bvult ?x52 bv4294967295[32]))) (iff constraint5 (not (bvult ?x56 bv4294967295[32]))) (iff constraint6 (not (= (zero_extend[31] ?x60) bv0[32]))) (iff constraint7 (= ?x67 bv1[32])) (iff constraint8 (not (= sfEvent_ bv2[32]))) (iff constraint9 (not (= sfEvent_ bv3[32]))) (iff constraint10 (not (not (= (zero_extend[31] ?x77) bv0[32])))) (iff constraint11 (not (not (= (zero_extend[31] ?x83) bv0[32])))) (iff constraint12 (not (not (= (zero_extend[31] ?x89) bv0[32])))) (iff constraint13 (not (not (= (zero_extend[31] ?x95) bv0[32])))) (iff constraint14 (not (not (= (zero_extend[31] ?x101) bv0[32])))) (iff constraint15 (= gtINDEX0 gtAGG__rtDWork)) (iff constraint16 (= gtINDEX1 gtAGG__rtDWork)) (iff constraint17 (= gtINDEX2 gtAGG__rtDWork)) (iff constraint18 (= gtINDEX3 gtAGG__rtDWork)) (iff constraint19 (= gtINDEX4 gtAGG__rtDWork)) (iff constraint20 (= gtINDEX5 gtAGG__rtDWork)) (iff constraint21 $x115) (iff constraint22 (= gtINDEX7 gtAGG__rtDWork)) (iff constraint23 $x119) (iff constraint24 (= gtINDEX9 gtAGG__rtDWork)) (iff constraint25 $x123) (iff constraint26 (= gtINDEX11 gtAGG__rtDWork)) (iff constraint27 $x127) (iff constraint28 (= gtINDEX13 gtAGG__rtDWork)) (iff constraint29 $x131) (iff constraint30 (= gtINDEX15 gtAGG__rtDWork)) (iff constraint31 $x135) (iff constraint32 (= gtINDEX17 gtAGG__rtDWork)) (iff constraint33 $x139)))
(and $x208 $x209))))))))))))))))))))))
)
